c hello
p cnf 16 46
1 5 9 13 0
2 6 10 14 0
3 7 11 15 0
4 8 12 16 0
-2 -1 0
-3 -1 0
-3 -2 0
-4 -1 0
-4 -2 0
-4 -3 0
-6 -5 0
-7 -5 0
-7 -6 0
-8 -5 0
-8 -6 0
-8 -7 0
-10 -9 0
-11 -9 0
-11 -10 0
-12 -9 0
-12 -10 0
-12 -11 0
-14 -13 0
-15 -13 0
-15 -14 0
-16 -13 0
-16 -14 0
-16 -15 0
-5 -10 0
-6 -11 0
-7 -12 0
-5 -14 0
-6 -15 0
-7 -16 0
-9 -6 0
-10 -7 0
-11 -8 0
-9 -14 0
-10 -15 0
-11 -16 0
-13 -6 0
-14 -7 0
-15 -8 0
-13 -10 0
-14 -11 0
-15 -12 0
